tsp_instances/TSP50/instance85.tsp
NODE_COORD_SECTION
0 93 71
1 44 54
2 68 80
3 137 161
4 160 162
5 99 101
6 160 118
7 125 46
8 136 129
9 100 131
10 16 35
11 200 85
12 178 181
13 4 68
14 73 186
15 84 39
16 114 118
17 45 72
18 123 18
19 122 85
20 35 48
21 17 145
22 61 85
23 31 96
24 131 187
25 125 62
26 178 170
27 130 182
28 175 42
29 164 83
30 81 141
31 111 0
32 109 157
33 89 117
34 156 115
35 72 193
36 152 140
37 156 193
38 67 67
39 14 156
40 89 84
41 106 27
42 114 121
43 48 172
44 16 89
45 176 88
46 18 91
47 136 27
48 42 185
49 118 116
