tsp_instances/TSP50/instance85.opt.tour
TOUR_SECTION
1
39
3
23
18
2
21
11
14
45
47
24
22
40
44
49
36
15
33
4
28
25
38
13
27
5
37
9
35
7
30
46
12
29
48
19
32
42
16
8
26
20
50
17
43
10
31
34
6
41
-1